%Chk=CIX_small_opt.chk
%Mem=3000MB
%NProcShared=48
# B3LYP/genecp Freq Geom=AllCheckpoint Guess=Read
Integral=(Grid=UltraFine) IOp(7/33=1)
 
H C O Cl N 0
6-31G*
****
Pt 0
SDD
****

Pt 0
SDD



